100
87
158
241
186
212
250
256
108
25
158
208
72
274
102
238
158
205
224
183
160
6
296
87
290
63
285
41
249
102
246
285
189
102
213
41
120
274
177
92
274
169
204
248
205
267
28
244
244
107
169
297
260
261
23
218
222
254
199
147
164
201
294
246
186
227
183
238
270
278
264
23
268
206
23
186
120
227
203
54
232
287
285
203
87
231
14
199
37
183
287
35
242
26
244
50
227
205
271
205
206
END